c SAT problem
p wcnf 858 2354
1 -60 -3120 0
1 -75 -76 0
1 75 -3120 0
1 -75 -60 0
1 -90 -105 0
1 105 -3120 0
1 -105 -90 0
1 105 3135 0
1 -3120 75 0
1 3120 -120 0
1 -3135 -3120 0
1 -3135 -181 0
1 3150 196 0
1 3150 166 0
1 3165 -136 0
1 -135 -3120 0
1 135 -3090 0
1 -135 3060 0
1 150 -3060 0
1 165 -3060 0
1 3060 -165 0
1 -3060 -135 0
1 -3060 -210 0
1 3060 3061 0
1 3075 -210 0
1 3090 3105 0
1 -3090 -135 0
1 3090 181 0
1 3090 -120 0
1 3105 -226 0
1 3105 -105 0
1 3105 181 0
1 -180 -195 0
1 -180 3030 0
1 -210 3060 0
1 -3000 225 0
1 -3000 300 0
1 -3000 -150 0
1 -3015 -225 0
1 -3015 -195 0
1 3015 -3000 0
1 -3030 -210 0
1 -3030 150 0
1 3030 255 0
1 3045 270 0
1 61 -3300 0
1 61 -76 0
1 -61 3315 0
1 76 77 0
1 -76 -3315 0
1 -91 -3330 0
1 91 3240 0
1 -91 -3345 0
1 106 -3240 0
1 3315 -3316 0
1 -3330 106 0
1 -3330 122 0
1 -3345 167 0
1 3345 3346 0
1 3345 -122 0
1 3345 -91 0
1 121 -3315 0
1 -121 -3285 0
1 136 -135 0
1 151 -3300 0
1 151 3270 0
1 151 3240 0
1 -151 -3225 0
1 3270 256 0
1 3270 -212 0
1 -3270 151 0
1 3285 256 0
1 -3285 3286 0
1 -181 3090 0
1 181 182 0
1 181 -3255 0
1 181 3225 0
1 181 -3135 0
1 196 -3240 0
1 -196 3150 0
1 -196 3120 0
1 196 -3165 0
1 211 -3240 0
1 211 -3210 0
1 211 3090 0
1 211 -212 0
1 -226 3105 0
1 226 -3225 0
1 226 3195 0
1 3180 301 0
1 -3180 -3195 0
1 -3180 -316 0
1 -3195 3180 0
1 3195 -270 0
1 3195 240 0
1 -3195 -211 0
1 3195 316 0
1 -3210 -3211 0
1 3210 301 0
1 -3210 -151 0
1 3210 -3225 0
1 3225 -166 0
1 3225 241 0
1 -240 -3060 0
1 -255 3151 0
1 255 -3121 0
1 255 3195 0
1 -270 3136 0
1 -270 3106 0
1 3121 330 0
1 -3121 270 0
1 -3121 3120 0
1 -3121 -211 0
1 -3136 3137 0
1 -3136 -300 0
1 -3136 -211 0
1 3151 361 0
1 -3151 3150 0
1 -3151 -3166 0
1 -3166 -361 0
1 3166 331 0
1 -3166 -3151 0
1 3166 240 0
1 -300 3030 0
1 -315 -3045 0
1 -315 3030 0
1 -330 3106 0
1 -330 -3031 0
1 -345 3016 0
1 -345 -3121 0
1 345 -3091 0
1 -345 3061 0
1 345 3001 0
1 -3061 -3076 0
1 -3061 -390 0
1 -3061 300 0
1 -3061 -435 0
1 -3061 3060 0
1 -3061 3062 0
1 3076 3075 0
1 -3076 -300 0
1 3076 -435 0
1 -3076 3061 0
1 3091 -3106 0
1 -3091 391 0
1 3106 -406 0
1 -3106 -376 0
1 3106 315 0
1 -360 3016 0
1 -360 -3031 0
1 -375 3076 0
1 -375 -3046 0
1 -375 3016 0
1 -405 3061 0
1 405 -406 0
1 3001 -3016 0
1 3016 -405 0
1 3016 3001 0
1 -3031 -480 0
1 -3031 -450 0
1 3031 330 0
1 -3031 375 0
1 -3046 -450 0
1 3046 420 0
1 -3046 -495 0
1 3046 -345 0
1 -62 3525 0
1 -62 3495 0
1 62 3510 0
1 -77 -3495 0
1 92 -3495 0
1 -92 -93 0
1 -3480 122 0
1 3510 3525 0
1 -3510 183 0
1 -3510 -123 0
1 -3525 -138 0
1 -3525 77 0
1 3525 123 0
1 -3525 -62 0
1 122 137 0
1 122 3465 0
1 -122 3480 0
1 -122 3450 0
1 -137 3465 0
1 -137 -3480 0
1 -152 3360 0
1 -152 3465 0
1 152 3420 0
1 167 168 0
1 -167 -3345 0
1 3420 -3421 0
1 3435 167 0
1 -3435 107 0
1 -3435 -122 0
1 3450 167 0
1 3465 -257 0
1 -3465 -242 0
1 3465 122 0
1 182 -3360 0
1 -182 -181 0
1 -197 -3360 0
1 -197 -3330 0
1 -197 -3270 0
1 -197 3435 0
1 197 3285 0
1 -212 -3346 0
1 212 3390 0
1 -227 3360 0
1 -227 3316 0
1 -227 -3390 0
1 3360 212 0
1 -3375 3360 0
1 3375 -317 0
1 3405 -167 0
1 -3405 -272 0
1 -241 -3270 0
1 -241 3346 0
1 -241 3316 0
1 241 -3225 0
1 -256 -3270 0
1 256 -3240 0
1 -256 3316 0
1 271 3316 0
1 286 -3301 0
1 -286 -3286 0
1 286 287 0
1 -3301 362 0
1 3301 271 0
1 3301 -212 0
1 -3301 -377 0
1 -3301 316 0
1 3316 286 0
1 3331 227 0
1 3331 332 0
1 -3331 271 0
1 3331 -347 0
1 3346 -3347 0
1 3346 347 0
1 301 3316 0
1 -301 3256 0
1 316 3271 0
1 -331 -3271 0
1 -331 3241 0
1 -331 3286 0
1 -346 -331 0
1 346 -3181 0
1 -346 -3226 0
1 346 -3196 0
1 3241 331 0
1 -3241 376 0
1 -3256 3241 0
1 -3256 436 0
1 3256 406 0
1 3256 376 0
1 3256 3257 0
1 -3256 -286 0
1 3271 362 0
1 -3271 -346 0
1 -3286 -407 0
1 3286 -377 0
1 -361 -3256 0
1 361 3211 0
1 361 -3181 0
1 361 -3196 0
1 -376 361 0
1 -376 -3241 0
1 -376 3091 0
1 -391 3137 0
1 391 390 0
1 391 3241 0
1 391 -406 0
1 -391 3256 0
1 406 3137 0
1 -406 3106 0
1 406 -391 0
1 -406 3211 0
1 406 3091 0
1 -406 3196 0
1 3181 -481 0
1 -3181 450 0
1 -3181 -391 0
1 3181 3182 0
1 3181 -435 0
1 -3196 481 0
1 3196 420 0
1 -3196 391 0
1 3196 -331 0
1 3196 -496 0
1 -3196 465 0
1 -3211 331 0
1 3211 -496 0
1 3211 436 0
1 -3226 -421 0
1 3226 -346 0
1 -420 -3181 0
1 -420 3061 0
1 -420 -3196 0
1 435 3137 0
1 -435 -3091 0
1 450 3137 0
1 -450 3107 0
1 450 -3181 0
1 450 -3152 0
1 450 3062 0
1 465 -3196 0
1 -3122 525 0
1 3122 465 0
1 3122 435 0
1 -3122 406 0
1 -3137 -450 0
1 3137 420 0
1 3137 -556 0
1 3137 406 0
1 3137 541 0
1 3152 -481 0
1 3152 435 0
1 3167 -450 0
1 3167 406 0
1 3167 541 0
1 -3167 511 0
1 -480 3137 0
1 480 -3107 0
1 480 3046 0
1 480 -3122 0
1 480 -3092 0
1 480 -3031 0
1 -480 -3001 0
1 -495 3046 0
1 495 3001 0
1 -510 3077 0
1 510 511 0
1 -525 -3122 0
1 -525 -3092 0
1 525 3032 0
1 3062 -615 0
1 3062 600 0
1 -3077 540 0
1 3092 450 0
1 3092 615 0
1 -3092 -525 0
1 3092 -510 0
1 -3107 480 0
1 3107 -3106 0
1 3107 615 0
1 540 3077 0
1 540 -555 0
1 540 -3062 0
1 555 3017 0
1 -555 -556 0
1 -570 -3062 0
1 -585 -570 0
1 -3002 -675 0
1 3002 -3001 0
1 3002 -540 0
1 3017 -675 0
1 3017 3018 0
1 3017 -570 0
1 -3032 525 0
1 3047 -645 0
1 3047 600 0
1 63 3690 0
1 78 3705 0
1 78 3675 0
1 -93 -3660 0
1 93 -3600 0
1 -93 3705 0
1 93 -92 0
1 -93 -94 0
1 108 -3630 0
1 108 3675 0
1 3660 -108 0
1 -3660 3661 0
1 -3660 -123 0
1 3690 -108 0
1 -3690 78 0
1 -3690 3705 0
1 -3705 -3706 0
1 3705 -124 0
1 -3705 63 0
1 123 138 0
1 -123 3675 0
1 138 3630 0
1 138 -3600 0
1 -138 3675 0
1 -138 3615 0
1 153 3630 0
1 153 -3600 0
1 -153 -152 0
1 -153 3645 0
1 168 -3585 0
1 -168 -3555 0
1 168 -169 0
1 -168 -3540 0
1 -168 3510 0
1 -3600 -258 0
1 3615 -258 0
1 3615 108 0
1 3630 -138 0
1 3630 3631 0
1 3630 214 0
1 -3645 -258 0
1 3645 -168 0
1 -3645 -3630 0
1 3645 184 0
1 3645 -153 0
1 -3645 123 0
1 -3645 -93 0
1 -183 -3585 0
1 -183 3495 0
1 183 3465 0
1 -183 184 0
1 -183 -3450 0
1 198 -3585 0
1 198 3495 0
1 198 -3600 0
1 -213 -3570 0
1 213 212 0
1 213 3540 0
1 213 3511 0
1 228 -3496 0
1 228 3570 0
1 -228 3615 0
1 -3540 -228 0
1 3555 -168 0
1 -3555 -272 0
1 3555 -3540 0
1 -3570 -258 0
1 -3570 -228 0
1 -3570 -213 0
1 -3585 -3570 0
1 -3585 -318 0
1 -242 3465 0
1 242 3405 0
1 -242 3420 0
1 257 -3481 0
1 257 3390 0
1 272 3405 0
1 -272 3511 0
1 272 -3481 0
1 -287 3466 0
1 -287 3451 0
1 3496 257 0
1 -3496 228 0
1 3496 -363 0
1 -3496 -213 0
1 3496 -378 0
1 -3496 -317 0
1 -3511 303 0
1 3526 257 0
1 3526 333 0
1 -3526 -242 0
1 3526 -318 0
1 -302 3496 0
1 -302 303 0
1 317 318 0
1 -332 3496 0
1 332 -3346 0
1 -332 -3481 0
1 347 3406 0
1 -347 -3346 0
1 -347 -3481 0
1 3421 -407 0
1 -3421 3422 0
1 3421 -287 0
1 3436 407 0
1 -3451 -332 0
1 -3451 302 0
1 3451 -378 0
1 -3466 408 0
1 -362 3331 0
1 362 3436 0
1 -377 3331 0
1 377 3376 0
1 -377 3286 0
1 -377 -3421 0
1 -377 3391 0
1 -392 -3361 0
1 -392 3332 0
1 392 -3376 0
1 -392 -3317 0
1 -407 3302 0
1 -407 -3271 0
1 -407 406 0
1 -3361 436 0
1 3376 3361 0
1 3376 -421 0
1 -3376 -436 0
1 3376 377 0
1 3376 347 0
1 -3391 -422 0
1 3391 -377 0
1 3406 -422 0
1 -3406 362 0
1 3406 -332 0
1 3406 467 0
1 421 -422 0
1 436 -3347 0
1 -436 -437 0
1 -436 3286 0
1 436 -3317 0
1 451 -450 0
1 451 452 0
1 451 -3376 0
1 -451 3317 0
1 451 3257 0
1 466 3272 0
1 466 -3242 0
1 -466 -465 0
1 -466 3347 0
1 466 3317 0
1 3302 -3301 0
1 -3302 -557 0
1 3302 -3317 0
1 3317 -496 0
1 -3332 -527 0
1 3332 407 0
1 3347 -482 0
1 3347 -451 0
1 -3347 557 0
1 3347 436 0
1 481 -482 0
1 481 -3152 0
1 -481 3257 0
1 481 -3226 0
1 496 -3272 0
1 496 -3242 0
1 496 -3152 0
1 496 -497 0
1 496 -3317 0
1 -496 -3257 0
1 -511 512 0
1 3242 481 0
1 3242 3241 0
1 -3242 511 0
1 -3257 451 0
1 -3257 616 0
1 3257 -586 0
1 -3272 -3271 0
1 -3272 -511 0
1 541 3092 0
1 541 3167 0
1 -556 -555 0
1 -556 -3182 0
1 -556 -3122 0
1 -556 -3197 0
1 -556 3257 0
1 571 3107 0
1 571 570 0
1 571 3197 0
1 586 3107 0
1 586 3153 0
1 3182 3181 0
1 -3182 -661 0
1 3182 3197 0
1 3212 -616 0
1 3227 -661 0
1 600 3168 0
1 600 3107 0
1 -600 3077 0
1 -615 -3138 0
1 615 -616 0
1 -615 -3197 0
1 -630 -3047 0
1 645 646 0
1 645 -3123 0
1 -3123 -675 0
1 -3123 -645 0
1 -3123 -615 0
1 -3123 -721 0
1 -3123 690 0
1 3123 660 0
1 3138 705 0
1 -3138 -645 0
1 -3138 721 0
1 -3138 660 0
1 -3153 676 0
1 3168 -706 0
1 3168 -661 0
1 3168 -571 0
1 -660 3138 0
1 -660 3017 0
1 675 -676 0
1 -690 -3018 0
1 690 3063 0
1 -705 -3138 0
1 705 -3018 0
1 3063 660 0
1 -3063 795 0
1 -3078 705 0
1 3078 750 0
1 3078 -3063 0
1 -3093 645 0
1 3093 -751 0
1 -3093 690 0
1 3108 645 0
1 3108 -780 0
1 -735 -736 0
1 -735 3048 0
1 -750 -3048 0
1 -765 3078 0
1 765 3018 0
1 765 750 0
1 -3003 -705 0
1 3003 -840 0
1 -3003 -750 0
1 -3018 720 0
1 -3033 -3048 0
1 3033 -720 0
1 3048 -705 0
1 -3048 810 0
1 -3048 -720 0
1 -3048 -690 0
1 -64 -3840 0
1 -64 65 0
1 -64 3855 0
1 79 -3885 0
1 -94 -3810 0
1 94 -3825 0
1 94 -3795 0
1 -109 3810 0
1 -109 108 0
1 109 -110 0
1 -109 3855 0
1 109 94 0
1 3840 -185 0
1 -3870 -109 0
1 124 -139 0
1 -139 -3780 0
1 -139 140 0
1 -139 -3825 0
1 -139 -3705 0
1 154 3780 0
1 -154 -3690 0
1 -154 3825 0
1 169 -3780 0
1 -169 -3750 0
1 169 168 0
1 169 -3765 0
1 -169 -3735 0
1 -169 -3705 0
1 -169 154 0
1 3780 124 0
1 3780 -94 0
1 -3795 -199 0
1 -3795 139 0
1 3795 -109 0
1 -3795 3796 0
1 -3795 184 0
1 3810 3811 0
1 -3810 200 0
1 3810 109 0
1 -3810 -244 0
1 3810 -154 0
1 3810 124 0
1 3825 -259 0
1 -3825 -244 0
1 -3825 -215 0
1 -3825 -124 0
1 -184 3750 0
1 184 199 0
1 199 -3780 0
1 -199 -200 0
1 -199 3630 0
1 -199 3795 0
1 -214 -3795 0
1 214 3706 0
1 214 -3676 0
1 229 230 0
1 -229 3765 0
1 -229 -3676 0
1 229 3645 0
1 3720 3721 0
1 3720 273 0
1 -3720 184 0
1 -3720 154 0
1 -3735 288 0
1 3735 -258 0
1 -3735 -154 0
1 3750 259 0
1 -3750 304 0
1 -3765 229 0
1 3765 3750 0
1 -3765 319 0
1 -243 3630 0
1 -243 242 0
1 243 3676 0
1 258 -243 0
1 273 3720 0
1 273 3691 0
1 273 -274 0
1 273 3735 0
1 -288 289 0
1 288 3570 0
1 -288 3676 0
1 3661 -288 0
1 3661 -364 0
1 -3661 348 0
1 3661 -318 0
1 3676 273 0
1 3676 -348 0
1 3691 -288 0
1 -3691 3706 0
1 3706 3691 0
1 -3706 -364 0
1 3706 -273 0
1 3706 -3705 0
1 3706 379 0
1 303 -3585 0
1 -303 3526 0
1 -318 3616 0
1 318 3585 0
1 -318 -3601 0
1 -318 3646 0
1 -318 -319 0
1 -333 3556 0
1 -333 -3601 0
1 333 348 0
1 348 3661 0
1 -348 3571 0
1 -348 3541 0
1 348 -347 0
1 348 3646 0
1 -3601 -288 0
1 3601 -3616 0
1 3601 303 0
1 3601 -3602 0
1 3601 -318 0
1 -3616 348 0
1 3616 3615 0
1 -3631 3646 0
1 -3631 -394 0
1 -3631 -348 0
1 3631 318 0
1 -3646 409 0
1 363 3586 0
1 363 -3481 0
1 378 -3616 0
1 -378 3571 0
1 -378 -377 0
1 -393 -3527 0
1 408 -3527 0
1 -408 393 0
1 408 3601 0
1 -408 3451 0
1 -3541 -452 0
1 -3541 -3556 0
1 -3541 3542 0
1 3541 408 0
1 3556 -452 0
1 3556 498 0
1 3556 408 0
1 3556 -348 0
1 -3571 498 0
1 3571 3570 0
1 -3586 483 0
1 3586 453 0
1 -3586 423 0
1 3586 -333 0
1 3586 3571 0
1 -3586 468 0
1 3586 408 0
1 -3586 348 0
1 422 -3556 0
1 422 3527 0
1 422 3497 0
1 -422 3482 0
1 437 3527 0
1 437 3497 0
1 437 3436 0
1 -437 -436 0
1 437 3512 0
1 437 3391 0
1 452 3527 0
1 -452 3541 0
1 452 3422 0
1 467 -3406 0
1 -467 3422 0
1 467 3391 0
1 -3482 497 0
1 -3482 -437 0
1 3497 437 0
1 -3497 -3482 0
1 -3512 452 0
1 -3512 -422 0
1 3512 -543 0
1 3527 -513 0
1 -3527 558 0
1 3527 -498 0
1 -3527 543 0
1 -482 -3376 0
1 -482 -3347 0
1 482 -3391 0
1 -497 3497 0
1 -497 3437 0
1 -497 -3406 0
1 497 496 0
1 -512 -3362 0
1 512 3332 0
1 -512 -527 0
1 512 -3347 0
1 512 -3452 0
1 512 -3422 0
1 -527 3392 0
1 527 3497 0
1 -3422 512 0
1 3422 572 0
1 -3422 -3421 0
1 3437 -497 0
1 -3437 -572 0
1 3452 -512 0
1 3452 558 0
1 3467 512 0
1 -3467 -452 0
1 -3467 558 0
1 -3467 -602 0
1 -3467 573 0
1 -557 3407 0
1 -557 -3317 0
1 572 3362 0
1 572 -3303 0
1 -572 3437 0
1 572 -3318 0
1 -587 3333 0
1 587 -572 0
1 587 3422 0
1 3362 -512 0
1 3362 -557 0
1 3362 -3377 0
1 3377 -601 0
1 -3392 557 0
1 -3392 602 0
1 3407 527 0
1 -3407 3408 0
1 -601 3362 0
1 -601 -3333 0
1 -601 3272 0
1 601 3257 0
1 -601 3227 0
1 -616 -3333 0
1 631 -646 0
1 631 -630 0
1 -631 3288 0
1 -646 -3362 0
1 646 3348 0
1 -3303 676 0
1 -3303 -3302 0
1 -3303 587 0
1 -3303 -722 0
1 -3303 -631 0
1 3318 -676 0
1 3333 677 0
1 -3333 3348 0
1 -3333 572 0
1 3348 646 0
1 3348 -616 0
1 -3348 -692 0
1 3348 601 0
1 -661 3318 0
1 676 -661 0
1 -676 3288 0
1 -691 706 0
1 -691 -3153 0
1 -706 -705 0
1 -706 -3213 0
1 -706 3318 0
1 706 3288 0
1 3243 -676 0
1 -3243 -646 0
1 3243 631 0
1 -3258 721 0
1 -3273 -691 0
1 -3288 781 0
1 -3288 -767 0
1 -721 3138 0
1 -721 3108 0
1 -721 -720 0
1 -721 3123 0
1 -721 3258 0
1 721 -3198 0
1 736 737 0
1 736 3123 0
1 751 -3139 0
1 751 3124 0
1 -751 766 0
1 -766 -3169 0
1 766 3243 0
1 766 -3258 0
1 -766 767 0
1 3198 736 0
1 -3198 -3183 0
1 3198 -795 0
1 3198 -3197 0
1 3198 3199 0
1 -3213 3214 0
1 -3228 -841 0
1 3228 -751 0
1 3228 3229 0
1 -780 3063 0
1 -795 -3139 0
1 -795 -3124 0
1 795 -3093 0
1 -795 -3063 0
1 810 3154 0
1 -810 825 0
1 825 -3169 0
1 -825 -3183 0
1 -825 -3124 0
1 -3124 901 0
1 3124 3123 0
1 3124 -916 0
1 -3124 -885 0
1 -3124 -825 0
1 -3124 766 0
1 3139 3138 0
1 -3139 870 0
1 3139 -751 0
1 -3154 -780 0
1 3154 886 0
1 3169 901 0
1 -3169 -916 0
1 -840 -855 0
1 -855 -3139 0
1 -855 3079 0
1 885 870 0
1 -885 3079 0
1 -885 3049 0
1 -885 3124 0
1 -885 -886 0
1 -3079 930 0
1 -3079 -900 0
1 3079 915 0
1 -3079 -855 0
1 -3094 931 0
1 3094 870 0
1 -3094 -840 0
1 3094 855 0
1 -3094 -3095 0
1 -3094 825 0
1 -3109 -916 0
1 3109 -885 0
1 -900 3034 0
1 900 -3004 0
1 915 -3079 0
1 -915 3004 0
1 930 945 0
1 -945 -930 0
1 -945 946 0
1 945 -3034 0
1 3004 900 0
1 -3004 -1035 0
1 3004 885 0
1 -3004 -1020 0
1 3019 1035 0
1 3019 3018 0
1 -3019 945 0
1 -3034 870 0
1 -3034 3049 0
1 3034 1005 0
1 3034 -3033 0
1 3049 -1035 0
1 -3049 1005 0
1 3049 -945 0
1 3049 -1020 0
1 -65 -4065 0
1 -65 -4035 0
1 80 4020 0
1 95 4050 0
1 -95 4020 0
1 -110 -4065 0
1 110 -3975 0
1 110 -4050 0
1 4020 -140 0
1 -4020 80 0
1 -4020 4021 0
1 -4020 -155 0
1 -4020 -125 0
1 -4020 -95 0
1 -4065 80 0
1 -4065 95 0
1 -125 -3960 0
1 155 3870 0
1 170 -169 0
1 -170 3870 0
1 3960 260 0
1 3975 -125 0
1 -3990 140 0
1 4005 260 0
1 4005 125 0
1 185 -3885 0
1 185 3960 0
1 -185 184 0
1 -185 3900 0
1 200 199 0
1 -200 3975 0
1 200 -3945 0
1 200 3960 0
1 200 3930 0
1 215 -3856 0
1 215 3960 0
1 -215 -3871 0
1 -230 -3841 0
1 230 3810 0
1 -3900 -289 0
1 -3900 230 0
1 -3900 305 0
1 -3900 244 0
1 -3900 215 0
1 3915 -3900 0
1 3930 290 0
1 3930 260 0
1 3930 200 0
1 3930 3945 0
1 3930 -185 0
1 3945 290 0
1 -3945 -3946 0
1 -3945 -245 0
1 -244 -3841 0
1 -244 3810 0
1 -244 -3915 0
1 259 -258 0
1 -259 -3810 0
1 259 260 0
1 259 3915 0
1 -259 3795 0
1 274 3781 0
1 274 -3826 0
1 -274 -275 0
1 -274 -3900 0
1 -289 288 0
1 -289 -3796 0
1 -3856 380 0
1 3856 -319 0
1 -3871 -3872 0
1 3871 244 0
1 3871 215 0
1 3886 -320 0
1 -3886 3885 0
1 -3886 305 0
1 -304 305 0
1 319 -320 0
1 -319 -3750 0
1 319 -304 0
1 334 -3811 0
1 334 -3796 0
1 -349 3811 0
1 -349 3856 0
1 349 -3706 0
1 -3781 3780 0
1 -3781 -3782 0
1 3781 -3796 0
1 3781 409 0
1 3781 379 0
1 -3781 -319 0
1 -3796 289 0
1 3796 3795 0
1 3796 -3797 0
1 3811 -289 0
1 -3811 -424 0
1 3811 274 0
1 3811 -3826 0
1 3811 349 0
1 -3826 274 0
1 3826 439 0
1 -3826 -349 0
1 -364 -3781 0
1 364 365 0
1 364 3631 0
1 364 3766 0
1 -364 3706 0
1 364 3676 0
1 379 -3721 0
1 379 3766 0
1 -379 3646 0
1 394 -3781 0
1 -394 3766 0
1 -409 3692 0
1 409 -3736 0
1 -409 -408 0
1 -409 410 0
1 409 -3707 0
1 -409 3646 0
1 -3721 3720 0
1 -3721 -334 0
1 3736 349 0
1 3751 3750 0
1 3751 364 0
1 -3751 -469 0
1 3751 -379 0
1 -3766 -484 0
1 -3766 3767 0
1 -3766 469 0
1 -3766 -409 0
1 423 -3601 0
1 -423 3571 0
1 -438 -3692 0
1 -438 3736 0
1 -438 -3646 0
1 -453 3586 0
1 453 468 0
1 -453 -3736 0
1 453 3707 0
1 -453 3647 0
1 468 453 0
1 468 -3721 0
1 -468 -467 0
1 -3677 -528 0
1 -3677 3678 0
1 -3692 -514 0
1 3692 484 0
1 -3692 -453 0
1 3692 -468 0
1 3692 -3707 0
1 3707 -423 0
1 -3707 559 0
1 -3707 499 0
1 -483 3586 0
1 -483 -3662 0
1 -483 3632 0
1 483 3512 0
1 483 -3677 0
1 483 3647 0
1 498 3512 0
1 498 3677 0
1 -498 3647 0
1 -513 -3617 0
1 -513 3542 0
1 -513 3677 0
1 -528 -3587 0
1 528 3632 0
1 -528 3512 0
1 528 3677 0
1 -3602 588 0
1 -3602 558 0
1 3602 -3603 0
1 -3602 -468 0
1 -3617 558 0
1 -3617 -3602 0
1 -3632 3631 0
1 3647 -3648 0
1 3647 498 0
1 3647 603 0
1 -543 3467 0
1 -558 3617 0
1 558 -3527 0
1 -558 -559 0
1 558 3602 0
1 -573 -3498 0
1 573 3602 0
1 573 -3572 0
1 -573 -3483 0
1 588 587 0
1 -3542 513 0
1 3542 -3543 0
1 3542 -602 0
1 3557 -3556 0
1 -3557 678 0
1 -3557 -617 0
1 -3557 528 0
1 3557 -3542 0
1 3557 632 0
1 3572 -513 0
1 -3572 678 0
1 -3572 588 0
1 -3572 -543 0
1 -3587 678 0
1 -3587 -648 0
1 -602 3392 0
1 -602 3528 0
1 -602 3498 0
1 -602 -3467 0
1 -602 -3452 0
1 617 618 0
1 617 -3467 0
1 617 -3498 0
1 617 3513 0
1 -617 3483 0
1 632 3392 0
1 632 3498 0
1 -632 -3513 0
1 -632 -3438 0
1 632 -3453 0
1 -647 646 0
1 647 -3438 0
1 647 -3407 0
1 647 -632 0
1 647 -3513 0
1 -647 -3453 0
1 -3483 707 0
1 3483 -588 0
1 3483 692 0
1 3483 573 0
1 -3498 707 0
1 3498 3499 0
1 -3498 723 0
1 3513 617 0
1 3513 -632 0
1 3528 -3527 0
1 3528 -3513 0
1 3528 602 0
1 662 -3333 0
1 662 -3377 0
1 662 -3423 0
1 -677 3348 0
1 -692 -3333 0
1 692 3438 0
1 -692 3408 0
1 -692 -691 0
1 707 706 0
1 3423 -677 0
1 3423 -647 0
1 -3423 632 0
1 -3438 677 0
1 3438 3437 0
1 -3438 3439 0
1 3438 -722 0
1 -3438 -662 0
1 3453 -738 0
1 -3453 677 0
1 -3453 3452 0
1 -3468 -707 0
1 -3468 3467 0
1 3468 3469 0
1 -3468 -782 0
1 -737 738 0
1 -737 -3438 0
1 -737 -3408 0
1 -752 3393 0
1 -752 -3273 0
1 752 -751 0
1 -752 3378 0
1 -752 -3349 0
1 767 -3273 0
1 -3363 707 0
1 -3363 -3364 0
1 -3363 857 0
1 -3363 -826 0
1 3378 -842 0
1 3378 -781 0
1 -3393 3394 0
1 -3408 -842 0
1 -3408 782 0
1 -3408 -3407 0
1 -3408 -3409 0
1 -3408 767 0
1 -781 -796 0
1 781 -3349 0
1 781 -3288 0
1 781 3228 0
1 796 3363 0
1 796 -3273 0
1 796 -3243 0
1 -796 -3288 0
1 -796 3228 0
1 -811 3363 0
1 -811 3244 0
1 811 -3378 0
1 -811 826 0
1 811 -3259 0
1 -826 3289 0
1 -826 -811 0
1 -3304 811 0
1 -3304 -796 0
1 -3319 3320 0
1 3319 -811 0
1 -3319 856 0
1 3334 -796 0
1 3349 872 0
1 -3349 811 0
1 3349 3348 0
1 -3349 -796 0
1 3349 -767 0
1 856 -3289 0
1 856 3304 0
1 -856 -3244 0
1 856 -3183 0
1 -856 855 0
1 -856 3228 0
1 -856 -3198 0
1 871 -872 0
1 871 3304 0
1 871 3259 0
1 886 -871 0
1 886 885 0
1 3244 -871 0
1 -3244 -3259 0
1 -3259 901 0
1 3259 3258 0
1 3259 -826 0
1 -3274 917 0
1 3289 -841 0
1 -3289 -3274 0
1 -3289 976 0
1 -3289 -856 0
1 901 3124 0
1 -916 -3109 0
1 916 -3214 0
1 -916 -917 0
1 -916 3199 0
1 931 3140 0
1 -931 3259 0
1 -946 3184 0
1 -946 947 0
1 946 -3094 0
1 3184 -960 0
1 3199 931 0
1 -3199 886 0
1 3199 -990 0
1 3214 871 0
1 -3214 1036 0
1 -3214 1006 0
1 3214 3215 0
1 3214 991 0
1 -3229 -931 0
1 3229 1021 0
1 3229 -991 0
1 960 -961 0
1 960 3049 0
1 -960 3094 0
1 -1005 3140 0
1 -1005 3110 0
1 1005 -1006 0
1 1005 3184 0
1 -1005 990 0
1 1005 3199 0
1 3125 -931 0
1 3125 -1050 0
1 -3140 -931 0
1 -3140 1005 0
1 -3140 1081 0
1 3155 -960 0
1 3155 1051 0
1 3155 1021 0
1 -3170 -1036 0
1 3170 1021 0
1 1020 -3140 0
1 1020 -1021 0
1 1035 -3140 0
1 -1035 3110 0
1 -1035 1036 0
1 1035 3034 0
1 -1050 3050 0
1 -1050 3095 0
1 1065 -1066 0
1 1065 -3035 0
1 3065 1125 0
1 -3065 -1050 0
1 -3065 990 0
1 -3080 1125 0
1 -3080 1020 0
1 -3080 -990 0
1 -3095 1111 0
1 -3110 -1096 0
1 3110 -1111 0
1 1080 -1081 0
1 1095 -3080 0
1 -1110 -3065 0
1 3005 1065 0
1 -3005 -1110 0
1 3005 -1050 0
1 -3020 1125 0
1 -3020 -1095 0
1 3020 -3005 0
1 3035 3034 0
1 -3050 -1110 0
1 -245 244 0
1 245 -3990 0
1 245 3960 0
1 -260 4036 0
1 -260 -245 0
1 -275 -4066 0
1 -275 -4036 0
1 -290 -3976 0
1 290 -275 0
1 -290 -4051 0
1 290 3930 0
1 -4021 -350 0
1 -4036 335 0
1 4066 4065 0
1 -4066 260 0
1 -4066 275 0
1 -4066 4051 0
1 -305 -3915 0
1 320 3886 0
1 320 305 0
1 -320 3961 0
1 320 3900 0
1 335 3976 0
1 -335 -4021 0
1 -335 -3901 0
1 350 3931 0
1 -3961 -395 0
1 3961 -305 0
1 3961 -3960 0
1 -3976 320 0
1 -3976 305 0
1 3976 275 0
1 -3976 -440 0
1 3991 290 0
1 -3991 4006 0
1 -3991 425 0
1 -4006 -4007 0
1 -4006 -425 0
1 4006 440 0
1 365 3841 0
1 -380 3841 0
1 -380 3856 0
1 395 3976 0
1 -395 394 0
1 395 -3946 0
1 395 -3901 0
1 410 3946 0
1 410 3916 0
1 -410 3887 0
1 410 -3857 0
1 -410 3901 0
1 -3901 424 0
1 -3901 365 0
1 -3916 395 0
1 3916 -3917 0
1 -3931 -440 0
1 3931 410 0
1 3931 -380 0
1 3931 3930 0
1 -3931 -350 0
1 -3946 335 0
1 3946 500 0
1 3946 -440 0
1 3946 3931 0
1 -3946 350 0
1 -424 3857 0
1 -439 3766 0
1 454 -3812 0
1 -454 -3782 0
1 -454 -3857 0
1 454 -3901 0
1 -469 -3812 0
1 469 3916 0
1 469 3797 0
1 469 -3766 0
1 -3842 395 0
1 3857 499 0
1 -3872 -500 0
1 -3872 -410 0
1 -3887 -424 0
1 3887 -3886 0
1 -484 -483 0
1 484 3827 0
1 -499 484 0
1 -499 -3721 0
1 -499 3736 0
1 514 515 0
1 514 3857 0
1 514 3797 0
1 514 3737 0
1 529 3812 0
1 -529 3857 0
1 529 530 0
1 -529 -3827 0
1 -3782 -514 0
1 3782 -3783 0
1 3797 -619 0
1 -3797 -589 0
1 -3812 -3811 0
1 3812 -604 0
1 3827 604 0
1 -544 -3692 0
1 544 3677 0
1 -559 3782 0
1 -559 558 0
1 -559 -3797 0
1 559 3707 0
1 574 589 0
1 574 3663 0
1 -574 3693 0
1 574 573 0
1 574 -3647 0
1 -589 -3782 0
1 589 -3678 0
1 -589 3722 0
1 -589 -3797 0
1 -589 -3737 0
1 -3722 -544 0
1 3722 -514 0
1 -3722 679 0
1 3722 -3721 0
1 3722 618 0
1 3722 -3723 0
1 -3722 -3737 0
1 -3722 -664 0
1 -3737 514 0
1 -3737 618 0
1 -3737 -589 0
1 3737 559 0
1 3752 -649 0
1 -3752 -3753 0
1 -3752 664 0
1 -3752 -604 0
1 -3767 514 0
1 3767 3768 0
1 3767 664 0
1 -3767 574 0
1 -603 3708 0
1 603 3617 0
1 603 -3663 0
1 603 -3602 0
1 -603 3572 0
1 -603 3678 0
1 603 -3647 0
1 618 -3737 0
1 633 -3618 0
1 633 648 0
1 633 3737 0
1 -648 -3618 0
1 -648 -3587 0
1 648 -647 0
1 -648 3722 0
1 -648 -3603 0
1 648 3708 0
1 -3663 693 0
1 -3663 -574 0
1 3678 678 0
1 3678 -663 0
1 -3678 -574 0
1 3693 -739 0
1 -3693 -679 0
1 -3693 724 0
1 -663 678 0
1 -678 -3528 0
1 -678 -3633 0
1 -693 3558 0
1 693 3513 0
1 -708 -3558 0
1 -708 -3528 0
1 708 3663 0
1 -3603 -3618 0
1 -3603 -708 0
1 3618 -3617 0
1 3618 -3619 0
1 -3618 783 0
1 3618 3603 0
1 3633 3648 0
1 -3633 769 0
1 -3633 -739 0
1 3633 -648 0
1 -3633 693 0
1 3648 -769 0
1 3648 678 0
1 -3648 -754 0
1 723 -3573 0
1 -723 3513 0
1 -738 3618 0
1 -738 -3588 0
1 738 3498 0
1 -738 -3513 0
1 -738 3453 0
1 -753 -768 0
1 753 3618 0
1 -753 3499 0
1 -753 752 0
1 753 -3603 0
1 -753 3514 0
1 -753 -3484 0
1 768 -3558 0
1 -768 753 0
1 768 3484 0
1 -768 767 0
1 3543 708 0
1 -3543 3558 0
1 3543 812 0
1 -3543 753 0
1 3543 -723 0
1 -3543 693 0
1 -3543 3542 0
1 3543 858 0
1 -3558 -768 0
1 -3558 -708 0
1 3558 843 0
1 3558 -753 0
1 3558 -723 0
1 3558 797 0
1 -3573 768 0
1 3573 -738 0
1 3573 3572 0
1 3573 828 0
1 3588 -723 0
1 782 -3438 0
1 782 -783 0
1 782 3514 0
1 797 782 0
1 -797 3484 0
1 -812 3529 0
1 -812 -813 0
1 812 -3484 0
1 827 -3514 0
1 -3484 768 0
1 -3484 -887 0
1 3499 -903 0
1 3499 -872 0
1 3499 -782 0
1 3499 -797 0
1 3514 -903 0
1 -3514 -843 0
1 -3514 -827 0
1 -3529 -843 0
1 -3529 -858 0
1 3529 797 0
1 842 -843 0
1 857 3469 0
1 872 -3364 0
1 887 -3394 0
1 -887 -3439 0
1 -887 3379 0
1 3424 932 0
1 -3424 842 0
1 -3424 -827 0
1 -3439 -812 0
1 -3439 -3438 0
1 3439 917 0
1 -3439 -857 0
1 3454 -842 0
1 -3454 948 0
1 3454 -918 0
1 -902 3364 0
1 902 -3334 0
1 -902 3304 0
1 902 -3379 0
1 917 -3274 0
1 917 3379 0
1 932 931 0
1 932 3274 0
1 947 3394 0
1 947 -932 0
1 947 -3305 0
1 -947 3409 0
1 -947 -3379 0
1 -947 -948 0
1 3364 961 0
1 3364 947 0
1 3364 991 0
1 3379 902 0
1 -3394 932 0
1 3394 902 0
1 -3394 3409 0
1 -3394 887 0
1 3409 -962 0
1 3409 977 0
1 3409 -917 0
1 -3409 -887 0
1 -961 3335 0
1 961 3274 0
1 961 3214 0
1 -961 -3350 0
1 976 3305 0
1 976 977 0
1 976 -3350 0
1 -976 -3229 0
1 -991 -3364 0
1 991 3350 0
1 991 3260 0
1 -1006 3335 0
1 -1006 -3305 0
1 1006 -3245 0
1 -1006 3290 0
1 3305 -961 0
1 3305 -932 0
1 3305 -1097 0
1 3305 -1082 0
1 -3320 1036 0
1 3320 1082 0
1 -3320 -1051 0
1 3335 -961 0
1 -3335 976 0
1 3350 -1067 0
1 -3350 -1006 0
1 3350 -947 0
1 -3350 -3349 0
1 3350 -1082 0
1 3350 1022 0
1 -3350 991 0
1 -1021 3170 0
1 1021 3184 0
1 -1021 -1020 0
1 1036 -3170 0
1 -1036 -3199 0
1 -1066 1067 0
1 1066 -3260 0
1 -3245 1126 0
1 -3260 -1051 0
1 3275 1097 0
1 3275 1006 0
1 3275 -3290 0
1 3275 991 0
1 3290 1036 0
1 -3290 -3289 0
1 3290 1082 0
1 1081 -3200 0
1 1081 3185 0
1 -1081 -3125 0
1 1081 3230 0
1 -1096 3200 0
1 -1096 -3155 0
1 -1096 -1081 0
1 1111 3260 0
1 -3185 3200 0
1 -3185 -1126 0
1 3200 -1096 0
1 3200 -1051 0
1 3200 -3199 0
1 -3215 3214 0
1 -3215 3230 0
1 -3230 -1051 0
1 425 4067 0
1 -425 4037 0
1 -425 4052 0
1 425 4022 0
1 425 440 0
1 440 3961 0
1 -455 454 0
1 -470 4037 0
1 470 455 0
1 -470 -4022 0
1 470 3931 0
1 -4022 -4037 0
1 -4022 530 0
1 4022 440 0
1 4037 515 0
1 4037 -440 0
1 -4052 -470 0
1 -4067 440 0
1 485 3916 0
1 -485 3901 0
1 500 -3992 0
1 515 514 0
1 515 -4022 0
1 -515 -3962 0
1 530 -4022 0
1 -530 -3932 0
1 -3962 500 0
1 3962 605 0
1 3977 3978 0
1 -3977 590 0
1 -3977 -560 0
1 -3977 -500 0
1 3977 3962 0
1 3992 -485 0
1 3992 470 0
1 -4007 515 0
1 4007 -485 0
1 4007 620 0
1 -4007 -470 0
1 545 544 0
1 545 3812 0
1 545 3947 0
1 -560 -3842 0
1 575 -3917 0
1 -575 3932 0
1 575 -574 0
1 -590 3917 0
1 590 -3932 0
1 -3917 -545 0
1 -3917 -619 0
1 3917 3918 0
1 3917 560 0
1 -3917 3902 0
1 3917 575 0
1 -3932 -590 0
1 -3932 -560 0
1 3932 665 0
1 3932 635 0
1 -3947 -650 0
1 3947 665 0
1 -3947 3932 0
1 -604 3843 0
1 -604 -3812 0
1 604 3858 0
1 604 -3797 0
1 604 -3767 0
1 -619 3782 0
1 619 618 0
1 619 -3858 0
1 -634 3813 0
1 -634 -3783 0
1 634 3752 0
1 -634 649 0
1 634 -3828 0
1 -649 -3873 0
1 649 -3798 0
1 649 3767 0
1 -649 -3902 0
1 3843 679 0
1 3858 740 0
1 3858 -709 0
1 -3858 -590 0
1 -3858 3857 0
1 3858 604 0
1 -3873 725 0
1 -3873 -695 0
1 3888 680 0
1 3888 619 0
1 3888 -665 0
1 -664 3813 0
1 664 -679 0
1 -664 3783 0
1 664 -3828 0
1 664 3708 0
1 -694 709 0
1 -694 -3753 0
1 694 -3798 0
1 709 -3753 0
1 709 -3738 0
1 -3783 664 0
1 -3783 634 0
1 -3798 769 0
1 3798 -3799 0
1 3798 -664 0
1 3798 -799 0
1 -3813 3812 0
1 3813 -3828 0
1 724 -3648 0
1 724 3723 0
1 739 -3648 0
1 -739 738 0
1 739 3753 0
1 754 3783 0
1 769 -768 0
1 -769 3783 0
1 -3723 859 0
1 3738 -783 0
1 -3738 3739 0
1 -3738 -754 0
1 -3753 -769 0
1 -3753 -3768 0
1 -3753 -859 0
1 3753 -799 0
1 3768 -784 0
1 3768 724 0
1 3768 3767 0
1 -3768 -3769 0
1 3768 799 0
1 -783 -3588 0
1 -783 798 0
1 798 -3679 0
1 -798 -3633 0
1 798 -3603 0
1 813 3619 0
1 -813 814 0
1 828 3709 0
1 -828 3694 0
1 828 3664 0
1 828 -3738 0
1 3664 -769 0
1 -3664 873 0
1 -3664 -843 0
1 -3664 3663 0
1 -3664 -3665 0
1 -3664 -919 0
1 -3664 -888 0
1 -3664 -798 0
1 3679 -769 0
1 -3679 -3678 0
1 -3679 919 0
1 -3694 -844 0
1 -3709 -3694 0
1 -843 3588 0
1 -843 -3558 0
1 -843 3573 0
1 -858 -3514 0
1 873 3664 0
1 -873 888 0
1 888 3589 0
1 -888 -887 0
1 -3604 -903 0
1 3604 -888 0
1 3619 -873 0
1 -3619 3604 0
1 3619 918 0
1 3634 -934 0
1 -3634 -3633 0
1 -3649 -963 0
1 3649 -949 0
1 3649 919 0
1 -3649 -888 0
1 -903 3469 0
1 -918 -3559 0
1 918 3469 0
1 918 -3574 0
1 933 -932 0
1 -933 -934 0
1 933 -3469 0
1 -933 3574 0
1 933 -3485 0
1 -948 -3544 0
1 948 3515 0
1 -3544 903 0
1 3544 -3559 0
1 3559 -903 0
1 3559 977 0
1 3574 3589 0
1 -3589 933 0
1 3589 -3590 0
1 -3589 -903 0
1 -3589 -873 0
1 3589 -1038 0
1 -3589 948 0
1 3589 918 0
1 -962 3500 0
1 962 -977 0
1 977 -3424 0
1 977 -962 0
1 977 3544 0
1 -977 3454 0
1 992 3559 0
1 -992 3470 0
1 992 -1007 0
1 -992 3515 0
1 -992 3485 0
1 1007 -1008 0
1 3485 -1098 0
1 3485 1067 0
1 -3500 3499 0
1 3500 977 0
1 3515 962 0
1 3515 -1038 0
1 -3515 3514 0
1 3530 3529 0
1 1022 -3409 0
1 -1022 3485 0
1 -1037 -3500 0
1 -1037 -3409 0
1 -1052 3380 0
1 1067 -1068 0
1 -1067 -1052 0
1 -1067 -3485 0
1 3425 -1127 0
1 3425 -1097 0
1 -3425 1082 0
1 3425 -1052 0
1 -3440 -1127 0
1 3440 -1067 0
1 -3440 1112 0
1 3440 -1082 0
1 -3440 -1022 0
1 -3455 -3470 0
1 3470 -3469 0
1 3470 1113 0
1 -3470 -1022 0
1 -3470 -3455 0
1 1082 3440 0
1 -1082 3290 0
1 1097 3425 0
1 1097 3365 0
1 1097 -1096 0
1 -1097 3410 0
1 1112 -3395 0
1 1127 -3425 0
1 1127 -3395 0
1 -3380 -3379 0
1 3380 1082 0
1 -3395 1097 0
1 -3395 3410 0
1 3410 -3395 0
1 605 -3977 0
1 605 -620 0
1 605 4053 0
1 -620 4068 0
1 -620 4053 0
1 620 -3992 0
1 -620 -3932 0
1 -620 605 0
1 635 -650 0
1 650 3963 0
1 650 4008 0
1 -650 -649 0
1 -650 -3978 0
1 -650 -3947 0
1 650 -4023 0
1 650 -3932 0
1 4038 -4037 0
1 -4038 695 0
1 -4038 665 0
1 4038 635 0
1 4038 -605 0
1 -4053 -4068 0
1 -4053 650 0
1 4053 -4052 0
1 4053 -4054 0
1 4068 -650 0
1 -665 -3873 0
1 665 4038 0
1 665 3947 0
1 -665 3993 0
1 -680 -3873 0
1 680 3902 0
1 695 710 0
1 695 694 0
1 -695 -3993 0
1 695 3963 0
1 710 3873 0
1 710 3918 0
1 -3963 -710 0
1 3963 725 0
1 3978 3963 0
1 -3978 710 0
1 3978 -3977 0
1 -3978 635 0
1 3993 785 0
1 -3993 -3992 0
1 4008 -695 0
1 725 3948 0
1 725 3888 0
1 725 3963 0
1 -725 3903 0
1 -740 739 0
1 -755 3859 0
1 770 3874 0
1 3903 770 0
1 -3903 -710 0
1 -3903 799 0
1 -3918 770 0
1 -3918 725 0
1 -3918 -829 0
1 -3933 725 0
1 -3948 -770 0
1 -3948 740 0
1 -3948 3947 0
1 -3948 -3949 0
1 -3948 695 0
1 -784 -783 0
1 784 -3859 0
1 -784 -3798 0
1 799 -3889 0
1 814 3814 0
1 -814 -829 0
1 829 -3784 0
1 829 3889 0
1 829 3768 0
1 829 3903 0
1 -3844 3843 0
1 3844 874 0
1 -3844 784 0
1 -3874 905 0
1 3874 -814 0
1 -3889 3874 0
1 3889 875 0
1 3889 814 0
1 -3889 3888 0
1 -844 3723 0
1 -844 3799 0
1 -844 -3768 0
1 859 860 0
1 -874 3784 0
1 874 3724 0
1 874 -3694 0
1 -889 -874 0
1 -889 3829 0
1 3784 -934 0
1 -3784 3785 0
1 3784 829 0
1 -3799 -3784 0
1 3799 949 0
1 3799 -829 0
1 3814 -964 0
1 -3814 3815 0
1 -3814 905 0
1 3814 874 0
1 -3814 829 0
1 3829 -3814 0
1 3829 889 0
1 -3829 -859 0
1 904 -905 0
1 -904 -919 0
1 904 -3739 0
1 -904 -3709 0
1 -919 -3664 0
1 -919 920 0
1 934 935 0
1 934 -3754 0
1 934 3724 0
1 -934 3710 0
1 -949 3754 0
1 -949 3724 0
1 949 -3634 0
1 -949 -3739 0
1 -949 -3710 0
1 3724 -3723 0
1 3724 978 0
1 3739 1024 0
1 3739 1008 0
1 -3739 919 0
1 -3754 1024 0
1 -3754 -964 0
1 -3754 934 0
1 3754 -1009 0
1 -3769 -1009 0
1 -3769 -979 0
1 3769 -919 0
1 3769 -3770 0
1 963 3649 0
1 963 -3619 0
1 963 -978 0
1 963 -3739 0
1 978 977 0
1 -978 979 0
1 -978 3574 0
1 -978 -3739 0
1 -993 3620 0
1 993 -3724 0
1 -993 1008 0
1 -993 3710 0
1 1008 993 0
1 -1008 3620 0
1 -1008 3589 0
1 1008 3724 0
1 1008 -1007 0
1 -1008 1009 0
1 -1008 3605 0
1 1008 3739 0
1 -1008 -3710 0
1 -3665 -1099 0
1 -3665 949 0
1 3665 -1053 0
1 -3680 934 0
1 3680 1099 0
1 3695 949 0
1 -3710 -963 0
1 1023 1038 0
1 1023 -1022 0
1 -1053 -3665 0
1 1053 -3635 0
1 1053 -3575 0
1 -1068 -3680 0
1 -1068 -3620 0
1 -1068 -1069 0
1 1068 -3665 0
1 -1068 -3515 0
1 3605 -993 0
1 -3605 3620 0
1 3605 -1098 0
1 3605 -1068 0
1 -3605 -1113 0
1 -3620 -3619 0
1 3620 1023 0
1 3650 -1099 0
1 1083 3530 0
1 1083 -3500 0
1 -1083 3605 0
1 -1098 -1099 0
1 1098 -3500 0
1 1098 -3470 0
1 -1098 3485 0
1 1113 -3605 0
1 -1128 -1113 0
1 -3545 -3560 0
1 -3545 1053 0
1 3575 3590 0
1 -3575 -3574 0
1 -3575 -1113 0
1 3575 -1083 0
1 -3575 1053 0
1 3590 -1098 0
1 -785 800 0
1 -785 -3948 0
1 785 -3993 0
1 -800 -4069 0
1 800 -3978 0
1 800 4054 0
1 -815 -3979 0
1 815 4024 0
1 -830 4009 0
1 830 3933 0
1 -4024 875 0
1 4024 -845 0
1 4024 815 0
1 4024 785 0
1 -4024 -4025 0
1 4039 -875 0
1 4039 845 0
1 4054 -800 0
1 4054 -4069 0
1 4069 -800 0
1 -4069 -785 0
1 845 -3948 0
1 845 3889 0
1 -845 -4024 0
1 -845 -3994 0
1 -845 -3933 0
1 845 3903 0
1 860 3903 0
1 -875 4009 0
1 875 3949 0
1 890 3994 0
1 890 -3934 0
1 -3964 845 0
1 3964 -980 0
1 3964 950 0
1 3964 920 0
1 -3964 860 0
1 3994 -3993 0
1 -3994 -980 0
1 -3994 890 0
1 3994 -830 0
1 4009 -875 0
1 -4009 830 0
1 4009 -3994 0
1 905 904 0
1 905 3949 0
1 905 -3829 0
1 905 3964 0
1 -920 -3844 0
1 920 905 0
1 935 -3875 0
1 -935 3814 0
1 -935 3934 0
1 -950 -3875 0
1 -950 3845 0
1 -950 3814 0
1 -950 3949 0
1 950 -3919 0
1 -950 3934 0
1 3904 1025 0
1 -3904 935 0
1 3904 3919 0
1 3904 950 0
1 3904 890 0
1 -3919 3904 0
1 3919 994 0
1 3919 -935 0
1 -3919 -3918 0
1 3934 965 0
1 3934 3949 0
1 -3934 1040 0
1 3934 -920 0
1 -3949 -875 0
1 -3949 3934 0
1 -964 -965 0
1 964 3784 0
1 -964 3799 0
1 -979 -3904 0
1 979 3875 0
1 979 -3769 0
1 994 3754 0
1 994 -3890 0
1 994 -3800 0
1 1009 3875 0
1 -1009 3815 0
1 -1009 -3860 0
1 3845 979 0
1 3845 -3860 0
1 3845 950 0
1 3845 -1085 0
1 3860 -1100 0
1 3860 -950 0
1 3875 994 0
1 -3875 1100 0
1 3875 1085 0
1 3875 1055 0
1 -3890 -994 0
1 -3890 -3889 0
1 -1024 -3815 0
1 1024 1039 0
1 1024 3695 0
1 -1024 -3830 0
1 1039 1024 0
1 -1039 -1040 0
1 -1039 3860 0
1 1039 3800 0
1 1054 -3845 0
1 -1054 3815 0
1 1054 3695 0
1 -1054 3740 0
1 1054 1055 0
1 1069 -3845 0
1 -1069 -3815 0
1 -1069 3725 0
1 1069 3695 0
1 -3785 -1099 0
1 -3785 -1039 0
1 3785 1054 0
1 -3800 1069 0
1 -3800 1039 0
1 3800 1054 0
1 -3815 -994 0
1 -3830 994 0
1 3830 3829 0
1 -1084 3680 0
1 1084 3725 0
1 -1084 -3710 0
1 1099 -3740 0
1 -1099 -3785 0
1 -1099 3665 0
1 1099 3800 0
1 -1114 -1129 0
1 1114 3785 0
1 1114 3755 0
1 1129 3740 0
1 -3725 1069 0
1 3725 1114 0
1 -3725 1084 0
1 3740 -3725 0
1 3740 -1054 0
1 -3755 -1129 0
1 3755 1084 0
1 -3770 1114 0
1 965 964 0
1 -965 4009 0
1 -965 -3934 0
1 980 -4070 0
1 -980 4055 0
1 -980 -4025 0
1 995 -4070 0
1 -995 -4010 0
1 995 -3949 0
1 -995 -1010 0
1 995 -4055 0
1 995 3934 0
1 -1010 4070 0
1 1010 4055 0
1 -4025 -1070 0
1 4025 1040 0
1 4025 1055 0
1 4040 -965 0
1 4055 -1010 0
1 -4055 4054 0
1 4070 1010 0
1 -4070 4055 0
1 1025 -1024 0
1 -1025 3965 0
1 -1040 -3965 0
1 1055 3875 0
1 -1055 -3920 0
1 1055 -4025 0
1 -1055 -3965 0
1 1070 -3980 0
1 -1070 -3935 0
1 -3965 1025 0
1 3965 1130 0
1 -3965 1115 0
1 -3980 -995 0
1 -3980 -3965 0
1 3995 -1070 0
1 -1085 -3905 0
1 1085 -3830 0
1 1100 3935 0
1 -1115 -1114 0
1 1130 3920 0
1 -1130 3965 0
1 -3905 -1100 0
1 -3920 1100 0
1 -3920 -1070 0
1 -3920 1115 0
1 -3935 1115 0
1 3950 1100 0
1 3950 1055 0
